Normalized Data/p04_25_normalized_split0.vrp
NAME:p04_25_NORMALIZED_split
BEST_KNOWN: 0
COMMENT: 0
DIMENSION: 639
CAPACITY: 100
EDGE_WEIGHT_FORMAT: FUNCTION
EDGE_WEIGHT_TYPE: EXACT_2D
NODE_COORD_SECTION
1 0.00000 0.00000
2 -3 2
3 -3 2
4 -3 2
5 -3 2
6 -3 2
7 28 -26
8 28 -26
9 28 -26
10 -20 -39
11 -20 -39
12 -20 -39
13 -20 -39
14 -20 -39
15 -20 -39
16 39 0
17 39 0
18 39 0
19 39 0
20 39 0
21 4 -24
22 4 -24
23 4 -24
24 4 -24
25 4 -24
26 4 -24
27 -20 37
28 -20 37
29 -20 37
30 -20 37
31 -20 37
32 -20 37
33 25 -45
34 25 -45
35 25 -45
36 25 -45
37 25 -45
38 25 -45
39 36 3
40 36 3
41 36 3
42 36 3
43 36 3
44 36 3
45 36 3
46 2 3
47 2 3
48 2 3
49 2 3
50 -29 48
51 -29 48
52 -29 48
53 -29 48
54 -29 48
55 -24 47
56 -24 47
57 -24 47
58 37 28
59 37 28
60 37 28
61 4 27
62 4 27
63 9 -33
64 9 -33
65 9 -33
66 9 -33
67 39 29
68 39 29
69 39 29
70 39 29
71 12 19
72 12 19
73 12 19
74 12 19
75 12 19
76 1 17
77 1 17
78 1 17
79 1 17
80 -24 -34
81 -24 -34
82 -24 -34
83 25 17
84 25 17
85 25 17
86 35 44
87 35 44
88 35 44
89 35 44
90 31 -17
91 31 -17
92 -7 12
93 -7 12
94 -7 12
95 -7 12
96 -7 12
97 -7 12
98 -29 35
99 -29 35
100 -29 35
101 -29 35
102 -29 35
103 -29 35
104 -29 35
105 -21 30
106 -21 30
107 -21 30
108 -21 30
109 9 41
110 9 41
111 9 41
112 9 41
113 -29 15
114 -29 15
115 -29 15
116 -29 15
117 -41 45
118 -41 45
119 -41 45
120 -41 45
121 -41 45
122 -41 45
123 15 19
124 15 19
125 15 19
126 15 19
127 15 19
128 15 19
129 -21 22
130 -21 22
131 0 47
132 0 47
133 0 47
134 0 47
135 0 47
136 0 47
137 32 35
138 32 35
139 32 35
140 32 35
141 32 35
142 32 35
143 -19 -47
144 -19 -47
145 -19 -47
146 -19 -47
147 -19 -47
148 34 30
149 34 30
150 34 30
151 34 30
152 34 30
153 -32 41
154 -32 41
155 -32 41
156 -32 41
157 -32 41
158 -32 41
159 -12 49
160 -12 49
161 -11 44
162 -11 44
163 -31 1
164 -31 1
165 -31 1
166 36 -45
167 36 -45
168 36 -45
169 36 -45
170 36 -45
171 36 -45
172 -29 15
173 -29 15
174 -29 15
175 10 -5
176 10 -5
177 10 -5
178 10 -5
179 10 -5
180 10 -5
181 -31 -31
182 -31 -31
183 -31 -31
184 39 37
185 39 37
186 6 -28
187 6 -28
188 6 -28
189 6 -28
190 6 -28
191 -48 43
192 -48 43
193 -48 43
194 -48 43
195 -48 43
196 -48 43
197 -43 33
198 -43 33
199 -43 33
200 -39 4
201 -39 4
202 -39 4
203 -39 4
204 -31 -8
205 -31 -8
206 -31 -8
207 -31 -8
208 -31 -8
209 1 8
210 1 8
211 1 8
212 1 8
213 1 8
214 -25 -30
215 -25 -30
216 -25 -30
217 -25 -30
218 -25 -30
219 -19 18
220 -19 18
221 -19 18
222 -19 18
223 -19 18
224 -19 18
225 -40 -9
226 -40 -9
227 -40 -9
228 -40 -9
229 16 6
230 16 6
231 16 6
232 16 6
233 -46 45
234 -46 45
235 -46 45
236 -46 45
237 -46 45
238 -24 15
239 -24 15
240 -24 15
241 -24 15
242 -24 15
243 -24 15
244 -45 50
245 -45 50
246 -45 50
247 -33 17
248 -33 17
249 -33 17
250 40 -42
251 40 -42
252 40 -42
253 40 -42
254 13 -5
255 13 -5
256 37 29
257 37 29
258 37 29
259 37 29
260 -23 50
261 -23 50
262 -23 50
263 -23 50
264 -23 50
265 -23 50
266 -23 50
267 -25 -14
268 -25 -14
269 -25 -14
270 -25 -14
271 -25 -14
272 27 -31
273 27 -31
274 27 -31
275 -6 1
276 -6 1
277 -6 1
278 -6 1
279 6 -10
280 6 -10
281 6 -10
282 6 -10
283 6 -10
284 -11 45
285 -11 45
286 -11 45
287 -11 45
288 -40 10
289 -40 10
290 -40 10
291 -40 10
292 -40 10
293 -9 43
294 -9 43
295 -9 43
296 -9 43
297 -9 43
298 18 39
299 18 39
300 18 39
301 18 39
302 -35 45
303 -35 45
304 -34 5
305 -34 5
306 -34 5
307 -34 5
308 -34 5
309 -5 31
310 -5 31
311 -5 31
312 -5 31
313 -5 31
314 -5 31
315 4 31
316 4 31
317 4 31
318 4 31
319 33 -21
320 46 -16
321 46 -16
322 46 -16
323 46 -16
324 46 -16
325 46 -16
326 -31 -21
327 -31 -21
328 -31 -21
329 -31 -21
330 29 3
331 29 3
332 29 3
333 29 3
334 29 3
335 -30 -18
336 -30 -18
337 -30 -18
338 -30 -18
339 8 -34
340 8 -34
341 8 -34
342 8 -34
343 8 -34
344 8 -34
345 -48 -48
346 -48 -48
347 -48 -48
348 15 -20
349 15 -20
350 15 -20
351 -14 23
352 -14 23
353 -14 23
354 -14 23
355 -14 23
356 -18 21
357 -18 21
358 -18 21
359 -47 -16
360 -47 -16
361 -47 -16
362 -47 -16
363 -47 -16
364 -47 -16
365 8 31
366 8 31
367 8 31
368 43 10
369 43 10
370 43 10
371 43 10
372 43 10
373 -24 38
374 -24 38
375 -24 38
376 31 12
377 31 12
378 31 12
379 31 12
380 -30 -37
381 -30 -37
382 -34 0
383 -34 0
384 -34 0
385 -26 37
386 -26 37
387 47 23
388 47 23
389 47 23
390 47 23
391 47 23
392 10 1
393 10 1
394 10 1
395 10 1
396 -36 -50
397 -36 -50
398 -36 -50
399 -38 -5
400 -38 -5
401 -38 -5
402 16 -16
403 16 -16
404 16 -16
405 -46 -15
406 -46 -15
407 -46 -15
408 -46 -15
409 31 40
410 31 40
411 31 40
412 31 40
413 31 40
414 31 40
415 41 43
416 41 43
417 41 43
418 41 43
419 43 28
420 43 28
421 43 28
422 43 28
423 43 28
424 43 28
425 43 28
426 38 -22
427 38 -22
428 7 -8
429 7 -8
430 50 10
431 50 10
432 50 10
433 50 10
434 32 35
435 32 35
436 -30 -11
437 -30 -11
438 -30 -11
439 -30 -11
440 -30 -11
441 5 50
442 5 50
443 5 50
444 5 50
445 5 50
446 -7 11
447 -7 11
448 -7 11
449 -7 11
450 -7 11
451 -5 -9
452 -5 -9
453 -5 -9
454 -5 -9
455 -5 -9
456 -5 -9
457 45 48
458 45 48
459 45 48
460 -45 -43
461 -45 -43
462 -45 -43
463 -45 -43
464 -45 -43
465 14 25
466 14 25
467 14 25
468 29 17
469 29 17
470 31 -31
471 31 -31
472 31 -31
473 31 -31
474 31 -31
475 -15 -32
476 -15 -32
477 -15 -32
478 -15 -32
479 -15 -32
480 -15 -32
481 -35 40
482 -35 40
483 -35 40
484 -35 40
485 13 1
486 13 1
487 13 1
488 13 1
489 13 1
490 13 1
491 19 6
492 19 6
493 19 6
494 19 6
495 -37 -3
496 -37 -3
497 -37 -3
498 -37 -3
499 9 -25
500 37 5
501 37 5
502 37 5
503 37 5
504 37 5
505 -3 6
506 -3 6
507 -3 6
508 -3 6
509 32 1
510 32 1
511 32 1
512 -47 3
513 -47 3
514 -47 3
515 -47 3
516 -47 3
517 -8 3
518 -8 3
519 -8 3
520 23 24
521 -47 36
522 -47 36
523 -47 36
524 -47 36
525 48 45
526 48 45
527 48 45
528 48 45
529 -18 2
530 -18 2
531 -18 2
532 -18 2
533 5 27
534 5 27
535 48 -27
536 48 -27
537 48 -27
538 48 -27
539 48 -27
540 17 11
541 17 11
542 17 11
543 17 11
544 17 11
545 17 11
546 -4 -9
547 -4 -9
548 -4 -9
549 -4 -9
550 -4 -9
551 -4 -9
552 4 38
553 4 38
554 4 38
555 4 38
556 4 38
557 -13 33
558 -13 33
559 -13 33
560 -13 33
561 -13 33
562 36 28
563 36 28
564 36 28
565 36 28
566 36 28
567 36 28
568 36 28
569 -16 -19
570 -16 -19
571 -16 -19
572 -16 -19
573 -16 -19
574 -16 -19
575 -16 -19
576 15 -28
577 15 -28
578 15 -28
579 15 -28
580 10 21
581 10 21
582 10 21
583 10 21
584 10 21
585 7 24
586 7 24
587 -32 -32
588 -32 -32
589 -32 -32
590 -32 -32
591 -32 -32
592 -32 -32
593 -49 33
594 -49 33
595 -49 33
596 38 45
597 38 45
598 38 45
599 38 45
600 -15 0
601 -15 0
602 -15 0
603 -15 0
604 -15 0
605 -15 0
606 -15 0
607 26 17
608 26 17
609 26 17
610 49 -39
611 49 -39
612 49 -39
613 -3 34
614 -3 34
615 10 -32
616 10 -32
617 10 -32
618 10 -32
619 10 -32
620 -34 -2
621 -34 -2
622 -34 -2
623 -34 -2
624 -34 -2
625 -34 -2
626 -34 -2
627 12 29
628 12 29
629 21 -5
630 21 -5
631 21 -5
632 21 -5
633 21 -5
634 21 -5
635 25 38
636 25 38
637 25 38
638 25 38
639 25 38
DEMAND_SECTION
1 0
2 20
3 1
4 1
5 1
6 1
7 20
8 20
9 1
10 20
11 5
12 1
13 1
14 1
15 1
16 10
17 5
18 1
19 1
20 1
21 20
22 20
23 1
24 1
25 1
26 1
27 20
28 20
29 1
30 1
31 1
32 1
33 20
34 20
35 5
36 1
37 1
38 1
39 20
40 20
41 5
42 1
43 1
44 1
45 1
46 20
47 1
48 1
49 1
50 10
51 5
52 1
53 1
54 1
55 20
56 10
57 5
58 20
59 20
60 1
61 20
62 5
63 20
64 10
65 5
66 1
67 10
68 1
69 1
70 1
71 10
72 1
73 1
74 1
75 1
76 20
77 10
78 1
79 1
80 20
81 10
82 5
83 20
84 20
85 5
86 20
87 10
88 1
89 1
90 20
91 20
92 20
93 20
94 5
95 1
96 1
97 1
98 20
99 20
100 5
101 1
102 1
103 1
104 1
105 20
106 20
107 1
108 1
109 20
110 20
111 5
112 1
113 20
114 20
115 1
116 1
117 20
118 5
119 1
120 1
121 1
122 1
123 10
124 5
125 1
126 1
127 1
128 1
129 10
130 5
131 20
132 5
133 1
134 1
135 1
136 1
137 10
138 5
139 1
140 1
141 1
142 1
143 20
144 10
145 1
146 1
147 1
148 20
149 1
150 1
151 1
152 1
153 20
154 5
155 1
156 1
157 1
158 1
159 10
160 5
161 20
162 10
163 10
164 1
165 1
166 20
167 5
168 1
169 1
170 1
171 1
172 20
173 20
174 1
175 20
176 10
177 5
178 1
179 1
180 1
181 10
182 5
183 1
184 20
185 20
186 20
187 20
188 1
189 1
190 1
191 20
192 10
193 1
194 1
195 1
196 1
197 20
198 20
199 10
200 10
201 1
202 1
203 1
204 20
205 5
206 1
207 1
208 1
209 20
210 20
211 5
212 1
213 1
214 20
215 20
216 1
217 1
218 1
219 20
220 10
221 5
222 1
223 1
224 1
225 20
226 10
227 1
228 1
229 20
230 10
231 1
232 1
233 20
234 1
235 1
236 1
237 1
238 20
239 20
240 5
241 1
242 1
243 1
244 20
245 1
246 1
247 20
248 1
249 1
250 20
251 1
252 1
253 1
254 10
255 5
256 10
257 1
258 1
259 1
260 20
261 10
262 5
263 1
264 1
265 1
266 1
267 20
268 20
269 5
270 1
271 1
272 20
273 1
274 1
275 20
276 10
277 1
278 1
279 20
280 1
281 1
282 1
283 1
284 20
285 20
286 5
287 1
288 20
289 10
290 1
291 1
292 1
293 20
294 1
295 1
296 1
297 1
298 20
299 20
300 5
301 1
302 20
303 1
304 20
305 10
306 5
307 1
308 1
309 20
310 20
311 5
312 1
313 1
314 1
315 20
316 20
317 5
318 1
319 20
320 20
321 5
322 1
323 1
324 1
325 1
326 20
327 20
328 5
329 1
330 20
331 5
332 1
333 1
334 1
335 10
336 5
337 1
338 1
339 20
340 20
341 1
342 1
343 1
344 1
345 20
346 20
347 10
348 20
349 20
350 1
351 20
352 10
353 1
354 1
355 1
356 20
357 1
358 1
359 20
360 20
361 1
362 1
363 1
364 1
365 20
366 1
367 1
368 20
369 1
370 1
371 1
372 1
373 20
374 1
375 1
376 10
377 5
378 1
379 1
380 20
381 20
382 10
383 1
384 1
385 20
386 10
387 20
388 10
389 1
390 1
391 1
392 20
393 10
394 1
395 1
396 20
397 20
398 5
399 20
400 20
401 5
402 10
403 1
404 1
405 20
406 5
407 1
408 1
409 20
410 10
411 1
412 1
413 1
414 1
415 20
416 20
417 1
418 1
419 20
420 10
421 5
422 1
423 1
424 1
425 1
426 10
427 5
428 20
429 5
430 20
431 5
432 1
433 1
434 20
435 20
436 20
437 1
438 1
439 1
440 1
441 20
442 10
443 5
444 1
445 1
446 10
447 5
448 1
449 1
450 1
451 20
452 20
453 5
454 1
455 1
456 1
457 20
458 10
459 5
460 20
461 10
462 1
463 1
464 1
465 20
466 1
467 1
468 20
469 5
470 20
471 5
472 1
473 1
474 1
475 20
476 20
477 5
478 1
479 1
480 1
481 10
482 5
483 1
484 1
485 20
486 5
487 1
488 1
489 1
490 1
491 10
492 5
493 1
494 1
495 10
496 5
497 1
498 1
499 20
500 10
501 5
502 1
503 1
504 1
505 10
506 5
507 1
508 1
509 20
510 10
511 1
512 10
513 5
514 1
515 1
516 1
517 20
518 10
519 1
520 20
521 20
522 5
523 1
524 1
525 10
526 1
527 1
528 1
529 20
530 20
531 1
532 1
533 20
534 10
535 20
536 20
537 1
538 1
539 1
540 20
541 20
542 1
543 1
544 1
545 1
546 20
547 20
548 1
549 1
550 1
551 1
552 10
553 1
554 1
555 1
556 1
557 20
558 10
559 1
560 1
561 1
562 20
563 20
564 5
565 1
566 1
567 1
568 1
569 20
570 20
571 5
572 1
573 1
574 1
575 1
576 20
577 1
578 1
579 1
580 10
581 1
582 1
583 1
584 1
585 10
586 5
587 20
588 5
589 1
590 1
591 1
592 1
593 10
594 5
595 1
596 10
597 5
598 1
599 1
600 20
601 10
602 5
603 1
604 1
605 1
606 1
607 20
608 1
609 1
610 20
611 20
612 5
613 20
614 20
615 20
616 5
617 1
618 1
619 1
620 20
621 20
622 5
623 1
624 1
625 1
626 1
627 10
628 5
629 20
630 5
631 1
632 1
633 1
634 1
635 10
636 1
637 1
638 1
639 1
DEPOT_SECTION
1
-1
EOF