Normalized Data/p04_25_normalized_split0.sol
638 -1 5 2 3 4 -6 7 318 90 89 -8 611 609 610 252 249 250 251 170 166 168 167 165 169 -23 22 25 24 20 21 347 349 348 402 403 401 -37 34 32 33 35 36 473 471 472 469 470 271 273 272 -46 47 48 45 542 543 544 541 539 540 228 229 231 230 -52 50 51 49 53 301 302 119 118 117 116 120 121 155 153 152 156 157 154 -57 67 68 66 69 255 257 258 256 149 147 151 150 148 519 126 123 124 127 125 -61 554 555 552 553 551 444 442 443 440 441 132 134 131 133 135 130 159 158 -72 70 74 71 73 122 83 82 84 607 608 606 493 492 491 -75 77 60 533 532 585 584 579 583 582 581 580 -76 78 612 613 308 312 309 311 313 310 -79 80 81 213 214 570 568 -87 85 88 86 597 595 598 596 458 456 457 526 527 524 525 -96 94 95 353 373 374 372 56 55 54 260 261 263 264 259 265 262 -101 102 100 99 98 97 103 385 384 104 -105 106 107 30 31 27 29 26 28 559 558 556 557 560 -112 172 113 114 115 173 171 518 517 -137 140 141 138 433 139 434 136 408 411 409 410 412 413 -161 160 284 286 283 285 296 294 293 292 295 -162 164 163 623 624 619 621 620 622 625 306 304 307 305 303 531 530 -178 179 177 176 175 174 428 427 278 280 279 282 281 -181 182 590 589 587 462 461 460 459 463 346 344 345 217 216 215 -183 184 415 417 416 414 638 635 637 636 634 -187 188 189 185 186 615 618 614 616 617 578 577 576 575 -194 193 192 191 195 190 233 235 234 236 232 243 245 244 483 480 481 482 356 -196 198 197 523 520 521 522 594 592 593 -204 203 205 207 206 436 438 437 435 439 266 267 270 268 269 -209 211 212 210 208 92 93 445 448 505 507 506 504 -220 129 128 357 355 350 354 351 352 91 449 447 446 -221 223 219 222 218 237 238 240 239 241 516 -226 224 227 225 400 398 399 497 495 496 494 -242 248 247 246 288 287 290 291 289 512 515 511 514 513 200 202 199 201 382 381 383 -253 254 630 631 628 484 488 485 486 393 392 391 394 -274 528 529 605 603 599 601 600 602 604 -276 275 277 404 407 405 406 362 359 360 361 363 358 334 335 -299 297 300 298 109 111 108 110 316 317 -315 314 364 365 366 627 626 464 466 465 -336 337 328 325 326 327 180 588 586 591 380 -342 341 338 343 339 340 62 65 63 64 498 -379 396 397 395 145 144 146 142 143 478 -418 421 424 422 420 423 419 387 388 389 390 386 375 378 377 376 490 -426 425 534 537 538 536 535 324 322 321 320 323 319 633 629 632 -455 452 453 454 451 450 547 548 546 545 550 549 -468 467 59 58 565 567 566 564 562 561 563 -477 479 476 474 475 12 14 9 13 10 11 571 569 574 573 572 -489 487 331 329 332 333 330 41 44 43 40 42 39 38 510 508 -503 499 501 500 502 368 369 367 370 371 430 432 429 431 16 18 15 17 19 509 0 





OBJ=
4149.919
BEST_KNOWN=
0.000